Route #1: 1 2 29 23 5 47 9 28 52 45 19 40 1
Route #2: 1 36 39 41 11 27 50 30 1
Route #3: 1 7 21 32 4 6 26 48 8 1
Route #4: 1 31 3 38 37 51 44 24 20 16 33 13 1
Route #5: 1 34 22 35 14 25 1
Route #6: 1 10 18 42 12 53 15 1
Route #7: 1 43 49 17 46 1
cost 1307
